p cnf 360 1477
1 0
-2 0
-3 0
-4 0
29 5 0
-29 -5 0
8 0
-5 0
-6 0
-7 0
4 12 36 0
-4 -12 0
-4 -36 0
-12 -36 0
-197 -198 0
-199 -200 0
-9 197 0
-9 199 0
-10 197 0
-10 200 0
-11 198 0
-11 199 0
-12 198 0
-12 200 0
-9 5 13 0
-9 5 37 0
-9 13 37 0
-10 6 14 0
-10 6 38 0
-10 14 38 0
-11 7 15 0
-11 7 39 0
-11 15 39 0
-12 8 16 0
-12 8 40 0
-12 16 40 0
-9 -5 -13 -37 0
-10 -6 -14 -38 0
-11 -7 -15 -39 0
-12 -8 -16 -40 0
-201 -202 0
-203 -204 0
-13 201 0
-13 203 0
-14 201 0
-14 204 0
-15 202 0
-15 203 0
-16 202 0
-16 204 0
-13 9 17 0
-13 9 41 0
-13 17 41 0
-14 10 18 0
-14 10 42 0
-14 18 42 0
-15 11 19 0
-15 11 43 0
-15 19 43 0
-16 12 20 0
-16 12 44 0
-16 20 44 0
-13 -9 -17 -41 0
-14 -10 -18 -42 0
-15 -11 -19 -43 0
-16 -12 -20 -44 0
-205 -206 0
-207 -208 0
-17 205 0
-17 207 0
-18 205 0
-18 208 0
-19 206 0
-19 207 0
-20 206 0
-20 208 0
-17 13 21 0
-17 13 45 0
-17 21 45 0
-18 14 22 0
-18 14 46 0
-18 22 46 0
-19 15 23 0
-19 15 47 0
-19 23 47 0
-20 16 24 0
-20 16 48 0
-20 24 48 0
-17 -13 -21 -45 0
-18 -14 -22 -46 0
-19 -15 -23 -47 0
-20 -16 -24 -48 0
-209 -210 0
-211 -212 0
-21 209 0
-21 211 0
-22 209 0
-22 212 0
-23 210 0
-23 211 0
-24 210 0
-24 212 0
-21 17 25 0
-21 17 49 0
-21 25 49 0
-22 18 26 0
-22 18 50 0
-22 26 50 0
-23 19 27 0
-23 19 51 0
-23 27 51 0
-24 20 28 0
-24 20 52 0
-24 28 52 0
-21 -17 -25 -49 0
-22 -18 -26 -50 0
-23 -19 -27 -51 0
-24 -20 -28 -52 0
-213 -214 0
-215 -216 0
-25 213 0
-25 215 0
-26 213 0
-26 216 0
-27 214 0
-27 215 0
-28 214 0
-28 216 0
-25 53 0
-25 21 0
-26 54 0
-26 22 0
-27 55 0
-27 23 0
-28 56 0
-28 24 0
-217 -218 0
-219 -220 0
-29 217 0
-29 219 0
-30 217 0
-30 220 0
-31 218 0
-31 219 0
-32 218 0
-32 220 0
-29 57 33 0
-29 57 1 0
-29 33 1 0
-30 58 34 0
-30 58 2 0
-30 34 2 0
-31 59 35 0
-31 59 3 0
-31 35 3 0
-32 60 36 0
-32 60 4 0
-32 36 4 0
-29 -57 -33 -1 0
-30 -58 -34 -2 0
-31 -59 -35 -3 0
-32 -60 -36 -4 0
-221 -222 0
-223 -224 0
-33 221 0
-33 223 0
-34 221 0
-34 224 0
-35 222 0
-35 223 0
-36 222 0
-36 224 0
-33 61 37 5 0
-33 61 37 29 0
-33 61 5 29 0
-33 37 5 29 0
-34 62 38 6 0
-34 62 38 30 0
-34 62 6 30 0
-34 38 6 30 0
-35 63 39 7 0
-35 63 39 31 0
-35 63 7 31 0
-35 39 7 31 0
-36 64 40 8 0
-36 64 40 32 0
-36 64 8 32 0
-36 40 8 32 0
-33 -61 -37 -5 0
-33 -61 -37 -29 0
-33 -61 -5 -29 0
-33 -37 -5 -29 0
-34 -62 -38 -6 0
-34 -62 -38 -30 0
-34 -62 -6 -30 0
-34 -38 -6 -30 0
-35 -63 -39 -7 0
-35 -63 -39 -31 0
-35 -63 -7 -31 0
-35 -39 -7 -31 0
-36 -64 -40 -8 0
-36 -64 -40 -32 0
-36 -64 -8 -32 0
-36 -40 -8 -32 0
-225 -226 0
-227 -228 0
-37 225 0
-37 227 0
-38 225 0
-38 228 0
-39 226 0
-39 227 0
-40 226 0
-40 228 0
-37 65 41 9 0
-37 65 41 33 0
-37 65 9 33 0
-37 41 9 33 0
-38 66 42 10 0
-38 66 42 34 0
-38 66 10 34 0
-38 42 10 34 0
-39 67 43 11 0
-39 67 43 35 0
-39 67 11 35 0
-39 43 11 35 0
-40 68 44 12 0
-40 68 44 36 0
-40 68 12 36 0
-40 44 12 36 0
-37 -65 -41 -9 0
-37 -65 -41 -33 0
-37 -65 -9 -33 0
-37 -41 -9 -33 0
-38 -66 -42 -10 0
-38 -66 -42 -34 0
-38 -66 -10 -34 0
-38 -42 -10 -34 0
-39 -67 -43 -11 0
-39 -67 -43 -35 0
-39 -67 -11 -35 0
-39 -43 -11 -35 0
-40 -68 -44 -12 0
-40 -68 -44 -36 0
-40 -68 -12 -36 0
-40 -44 -12 -36 0
-229 -230 0
-231 -232 0
-41 229 0
-41 231 0
-42 229 0
-42 232 0
-43 230 0
-43 231 0
-44 230 0
-44 232 0
-41 69 45 13 0
-41 69 45 37 0
-41 69 13 37 0
-41 45 13 37 0
-42 70 46 14 0
-42 70 46 38 0
-42 70 14 38 0
-42 46 14 38 0
-43 71 47 15 0
-43 71 47 39 0
-43 71 15 39 0
-43 47 15 39 0
-44 72 48 16 0
-44 72 48 40 0
-44 72 16 40 0
-44 48 16 40 0
-41 -69 -45 -13 0
-41 -69 -45 -37 0
-41 -69 -13 -37 0
-41 -45 -13 -37 0
-42 -70 -46 -14 0
-42 -70 -46 -38 0
-42 -70 -14 -38 0
-42 -46 -14 -38 0
-43 -71 -47 -15 0
-43 -71 -47 -39 0
-43 -71 -15 -39 0
-43 -47 -15 -39 0
-44 -72 -48 -16 0
-44 -72 -48 -40 0
-44 -72 -16 -40 0
-44 -48 -16 -40 0
-233 -234 0
-235 -236 0
-45 233 0
-45 235 0
-46 233 0
-46 236 0
-47 234 0
-47 235 0
-48 234 0
-48 236 0
-45 73 49 17 0
-45 73 49 41 0
-45 73 17 41 0
-45 49 17 41 0
-46 74 50 18 0
-46 74 50 42 0
-46 74 18 42 0
-46 50 18 42 0
-47 75 51 19 0
-47 75 51 43 0
-47 75 19 43 0
-47 51 19 43 0
-48 76 52 20 0
-48 76 52 44 0
-48 76 20 44 0
-48 52 20 44 0
-45 -73 -49 -17 0
-45 -73 -49 -41 0
-45 -73 -17 -41 0
-45 -49 -17 -41 0
-46 -74 -50 -18 0
-46 -74 -50 -42 0
-46 -74 -18 -42 0
-46 -50 -18 -42 0
-47 -75 -51 -19 0
-47 -75 -51 -43 0
-47 -75 -19 -43 0
-47 -51 -19 -43 0
-48 -76 -52 -20 0
-48 -76 -52 -44 0
-48 -76 -20 -44 0
-48 -52 -20 -44 0
51 0
-49 0
-50 0
-52 0
79 55 23 47 0
-79 -55 0
-79 -23 0
-79 -47 0
-55 -23 0
-55 -47 0
-23 -47 0
-237 -238 0
-239 -240 0
-53 237 0
-53 239 0
-54 237 0
-54 240 0
-55 238 0
-55 239 0
-56 238 0
-56 240 0
-53 81 49 0
-53 81 25 0
-53 49 25 0
-54 82 50 0
-54 82 26 0
-54 50 26 0
-55 83 51 0
-55 83 27 0
-55 51 27 0
-56 84 52 0
-56 84 28 0
-56 52 28 0
-53 -81 -49 -25 0
-54 -82 -50 -26 0
-55 -83 -51 -27 0
-56 -84 -52 -28 0
-241 -242 0
-243 -244 0
-57 241 0
-57 243 0
-58 241 0
-58 244 0
-59 242 0
-59 243 0
-60 242 0
-60 244 0
-57 85 61 0
-57 85 29 0
-57 61 29 0
-58 86 62 0
-58 86 30 0
-58 62 30 0
-59 87 63 0
-59 87 31 0
-59 63 31 0
-60 88 64 0
-60 88 32 0
-60 64 32 0
-57 -85 -61 -29 0
-58 -86 -62 -30 0
-59 -87 -63 -31 0
-60 -88 -64 -32 0
-245 -246 0
-247 -248 0
-61 245 0
-61 247 0
-62 245 0
-62 248 0
-63 246 0
-63 247 0
-64 246 0
-64 248 0
-61 89 65 33 0
-61 89 65 57 0
-61 89 33 57 0
-61 65 33 57 0
-62 90 66 34 0
-62 90 66 58 0
-62 90 34 58 0
-62 66 34 58 0
-63 91 67 35 0
-63 91 67 59 0
-63 91 35 59 0
-63 67 35 59 0
-64 92 68 36 0
-64 92 68 60 0
-64 92 36 60 0
-64 68 36 60 0
-61 -89 -65 -33 0
-61 -89 -65 -57 0
-61 -89 -33 -57 0
-61 -65 -33 -57 0
-62 -90 -66 -34 0
-62 -90 -66 -58 0
-62 -90 -34 -58 0
-62 -66 -34 -58 0
-63 -91 -67 -35 0
-63 -91 -67 -59 0
-63 -91 -35 -59 0
-63 -67 -35 -59 0
-64 -92 -68 -36 0
-64 -92 -68 -60 0
-64 -92 -36 -60 0
-64 -68 -36 -60 0
-249 -250 0
-251 -252 0
-65 249 0
-65 251 0
-66 249 0
-66 252 0
-67 250 0
-67 251 0
-68 250 0
-68 252 0
-65 93 69 37 0
-65 93 69 61 0
-65 93 37 61 0
-65 69 37 61 0
-66 94 70 38 0
-66 94 70 62 0
-66 94 38 62 0
-66 70 38 62 0
-67 95 71 39 0
-67 95 71 63 0
-67 95 39 63 0
-67 71 39 63 0
-68 96 72 40 0
-68 96 72 64 0
-68 96 40 64 0
-68 72 40 64 0
-65 -93 -69 -37 0
-65 -93 -69 -61 0
-65 -93 -37 -61 0
-65 -69 -37 -61 0
-66 -94 -70 -38 0
-66 -94 -70 -62 0
-66 -94 -38 -62 0
-66 -70 -38 -62 0
-67 -95 -71 -39 0
-67 -95 -71 -63 0
-67 -95 -39 -63 0
-67 -71 -39 -63 0
-68 -96 -72 -40 0
-68 -96 -72 -64 0
-68 -96 -40 -64 0
-68 -72 -40 -64 0
70 0
-69 0
-71 0
-72 0
98 74 42 66 0
-98 -74 0
-98 -42 0
-98 -66 0
-74 -42 0
-74 -66 0
-42 -66 0
-253 -254 0
-255 -256 0
-73 253 0
-73 255 0
-74 253 0
-74 256 0
-75 254 0
-75 255 0
-76 254 0
-76 256 0
-73 101 77 45 0
-73 101 77 69 0
-73 101 45 69 0
-73 77 45 69 0
-74 102 78 46 0
-74 102 78 70 0
-74 102 46 70 0
-74 78 46 70 0
-75 103 79 47 0
-75 103 79 71 0
-75 103 47 71 0
-75 79 47 71 0
-76 104 80 48 0
-76 104 80 72 0
-76 104 48 72 0
-76 80 48 72 0
-73 -101 -77 -45 0
-73 -101 -77 -69 0
-73 -101 -45 -69 0
-73 -77 -45 -69 0
-74 -102 -78 -46 0
-74 -102 -78 -70 0
-74 -102 -46 -70 0
-74 -78 -46 -70 0
-75 -103 -79 -47 0
-75 -103 -79 -71 0
-75 -103 -47 -71 0
-75 -79 -47 -71 0
-76 -104 -80 -48 0
-76 -104 -80 -72 0
-76 -104 -48 -72 0
-76 -80 -48 -72 0
-257 -258 0
-259 -260 0
-77 257 0
-77 259 0
-78 257 0
-78 260 0
-79 258 0
-79 259 0
-80 258 0
-80 260 0
-77 105 81 49 0
-77 105 81 73 0
-77 105 49 73 0
-77 81 49 73 0
-78 106 82 50 0
-78 106 82 74 0
-78 106 50 74 0
-78 82 50 74 0
-79 107 83 51 0
-79 107 83 75 0
-79 107 51 75 0
-79 83 51 75 0
-80 108 84 52 0
-80 108 84 76 0
-80 108 52 76 0
-80 84 52 76 0
-77 -105 -81 -49 0
-77 -105 -81 -73 0
-77 -105 -49 -73 0
-77 -81 -49 -73 0
-78 -106 -82 -50 0
-78 -106 -82 -74 0
-78 -106 -50 -74 0
-78 -82 -50 -74 0
-79 -107 -83 -51 0
-79 -107 -83 -75 0
-79 -107 -51 -75 0
-79 -83 -51 -75 0
-80 -108 -84 -52 0
-80 -108 -84 -76 0
-80 -108 -52 -76 0
-80 -84 -52 -76 0
-261 -262 0
-263 -264 0
-81 261 0
-81 263 0
-82 261 0
-82 264 0
-83 262 0
-83 263 0
-84 262 0
-84 264 0
-81 109 77 0
-81 109 53 0
-81 77 53 0
-82 110 78 0
-82 110 54 0
-82 78 54 0
-83 111 79 0
-83 111 55 0
-83 79 55 0
-84 112 80 0
-84 112 56 0
-84 80 56 0
-81 -109 -77 -53 0
-82 -110 -78 -54 0
-83 -111 -79 -55 0
-84 -112 -80 -56 0
-265 -266 0
-267 -268 0
-85 265 0
-85 267 0
-86 265 0
-86 268 0
-87 266 0
-87 267 0
-88 266 0
-88 268 0
-85 113 89 0
-85 113 57 0
-85 89 57 0
-86 114 90 0
-86 114 58 0
-86 90 58 0
-87 115 91 0
-87 115 59 0
-87 91 59 0
-88 116 92 0
-88 116 60 0
-88 92 60 0
-85 -113 -89 -57 0
-86 -114 -90 -58 0
-87 -115 -91 -59 0
-88 -116 -92 -60 0
-269 -270 0
-271 -272 0
-89 269 0
-89 271 0
-90 269 0
-90 272 0
-91 270 0
-91 271 0
-92 270 0
-92 272 0
-89 117 93 61 0
-89 117 93 85 0
-89 117 61 85 0
-89 93 61 85 0
-90 118 94 62 0
-90 118 94 86 0
-90 118 62 86 0
-90 94 62 86 0
-91 119 95 63 0
-91 119 95 87 0
-91 119 63 87 0
-91 95 63 87 0
-92 120 96 64 0
-92 120 96 88 0
-92 120 64 88 0
-92 96 64 88 0
-89 -117 -93 -61 0
-89 -117 -93 -85 0
-89 -117 -61 -85 0
-89 -93 -61 -85 0
-90 -118 -94 -62 0
-90 -118 -94 -86 0
-90 -118 -62 -86 0
-90 -94 -62 -86 0
-91 -119 -95 -63 0
-91 -119 -95 -87 0
-91 -119 -63 -87 0
-91 -95 -63 -87 0
-92 -120 -96 -64 0
-92 -120 -96 -88 0
-92 -120 -64 -88 0
-92 -96 -64 -88 0
-273 -274 0
-275 -276 0
-93 273 0
-93 275 0
-94 273 0
-94 276 0
-95 274 0
-95 275 0
-96 274 0
-96 276 0
-93 121 97 65 0
-93 121 97 89 0
-93 121 65 89 0
-93 97 65 89 0
-94 122 98 66 0
-94 122 98 90 0
-94 122 66 90 0
-94 98 66 90 0
-95 123 99 67 0
-95 123 99 91 0
-95 123 67 91 0
-95 99 67 91 0
-96 124 100 68 0
-96 124 100 92 0
-96 124 68 92 0
-96 100 68 92 0
-93 -121 -97 -65 0
-93 -121 -97 -89 0
-93 -121 -65 -89 0
-93 -97 -65 -89 0
-94 -122 -98 -66 0
-94 -122 -98 -90 0
-94 -122 -66 -90 0
-94 -98 -66 -90 0
-95 -123 -99 -67 0
-95 -123 -99 -91 0
-95 -123 -67 -91 0
-95 -99 -67 -91 0
-96 -124 -100 -68 0
-96 -124 -100 -92 0
-96 -124 -68 -92 0
-96 -100 -68 -92 0
-277 -278 0
-279 -280 0
-97 277 0
-97 279 0
-98 277 0
-98 280 0
-99 278 0
-99 279 0
-100 278 0
-100 280 0
-97 125 101 69 0
-97 125 101 93 0
-97 125 69 93 0
-97 101 69 93 0
-98 126 102 70 0
-98 126 102 94 0
-98 126 70 94 0
-98 102 70 94 0
-99 127 103 71 0
-99 127 103 95 0
-99 127 71 95 0
-99 103 71 95 0
-100 128 104 72 0
-100 128 104 96 0
-100 128 72 96 0
-100 104 72 96 0
-97 -125 -101 -69 0
-97 -125 -101 -93 0
-97 -125 -69 -93 0
-97 -101 -69 -93 0
-98 -126 -102 -70 0
-98 -126 -102 -94 0
-98 -126 -70 -94 0
-98 -102 -70 -94 0
-99 -127 -103 -71 0
-99 -127 -103 -95 0
-99 -127 -71 -95 0
-99 -103 -71 -95 0
-100 -128 -104 -72 0
-100 -128 -104 -96 0
-100 -128 -72 -96 0
-100 -104 -72 -96 0
-281 -282 0
-283 -284 0
-101 281 0
-101 283 0
-102 281 0
-102 284 0
-103 282 0
-103 283 0
-104 282 0
-104 284 0
-101 129 105 73 0
-101 129 105 97 0
-101 129 73 97 0
-101 105 73 97 0
-102 130 106 74 0
-102 130 106 98 0
-102 130 74 98 0
-102 106 74 98 0
-103 131 107 75 0
-103 131 107 99 0
-103 131 75 99 0
-103 107 75 99 0
-104 132 108 76 0
-104 132 108 100 0
-104 132 76 100 0
-104 108 76 100 0
-101 -129 -105 -73 0
-101 -129 -105 -97 0
-101 -129 -73 -97 0
-101 -105 -73 -97 0
-102 -130 -106 -74 0
-102 -130 -106 -98 0
-102 -130 -74 -98 0
-102 -106 -74 -98 0
-103 -131 -107 -75 0
-103 -131 -107 -99 0
-103 -131 -75 -99 0
-103 -107 -75 -99 0
-104 -132 -108 -76 0
-104 -132 -108 -100 0
-104 -132 -76 -100 0
-104 -108 -76 -100 0
-285 -286 0
-287 -288 0
-105 285 0
-105 287 0
-106 285 0
-106 288 0
-107 286 0
-107 287 0
-108 286 0
-108 288 0
-105 133 109 77 0
-105 133 109 101 0
-105 133 77 101 0
-105 109 77 101 0
-106 134 110 78 0
-106 134 110 102 0
-106 134 78 102 0
-106 110 78 102 0
-107 135 111 79 0
-107 135 111 103 0
-107 135 79 103 0
-107 111 79 103 0
-108 136 112 80 0
-108 136 112 104 0
-108 136 80 104 0
-108 112 80 104 0
-105 -133 -109 -77 0
-105 -133 -109 -101 0
-105 -133 -77 -101 0
-105 -109 -77 -101 0
-106 -134 -110 -78 0
-106 -134 -110 -102 0
-106 -134 -78 -102 0
-106 -110 -78 -102 0
-107 -135 -111 -79 0
-107 -135 -111 -103 0
-107 -135 -79 -103 0
-107 -111 -79 -103 0
-108 -136 -112 -80 0
-108 -136 -112 -104 0
-108 -136 -80 -104 0
-108 -112 -80 -104 0
-289 -290 0
-291 -292 0
-109 289 0
-109 291 0
-110 289 0
-110 292 0
-111 290 0
-111 291 0
-112 290 0
-112 292 0
-109 137 105 0
-109 137 81 0
-109 105 81 0
-110 138 106 0
-110 138 82 0
-110 106 82 0
-111 139 107 0
-111 139 83 0
-111 107 83 0
-112 140 108 0
-112 140 84 0
-112 108 84 0
-109 -137 -105 -81 0
-110 -138 -106 -82 0
-111 -139 -107 -83 0
-112 -140 -108 -84 0
-293 -294 0
-295 -296 0
-113 293 0
-113 295 0
-114 293 0
-114 296 0
-115 294 0
-115 295 0
-116 294 0
-116 296 0
-113 141 117 0
-113 141 85 0
-113 117 85 0
-114 142 118 0
-114 142 86 0
-114 118 86 0
-115 143 119 0
-115 143 87 0
-115 119 87 0
-116 144 120 0
-116 144 88 0
-116 120 88 0
-113 -141 -117 -85 0
-114 -142 -118 -86 0
-115 -143 -119 -87 0
-116 -144 -120 -88 0
-297 -298 0
-299 -300 0
-117 297 0
-117 299 0
-118 297 0
-118 300 0
-119 298 0
-119 299 0
-120 298 0
-120 300 0
-117 145 121 89 0
-117 145 121 113 0
-117 145 89 113 0
-117 121 89 113 0
-118 146 122 90 0
-118 146 122 114 0
-118 146 90 114 0
-118 122 90 114 0
-119 147 123 91 0
-119 147 123 115 0
-119 147 91 115 0
-119 123 91 115 0
-120 148 124 92 0
-120 148 124 116 0
-120 148 92 116 0
-120 124 92 116 0
-117 -145 -121 -89 0
-117 -145 -121 -113 0
-117 -145 -89 -113 0
-117 -121 -89 -113 0
-118 -146 -122 -90 0
-118 -146 -122 -114 0
-118 -146 -90 -114 0
-118 -122 -90 -114 0
-119 -147 -123 -91 0
-119 -147 -123 -115 0
-119 -147 -91 -115 0
-119 -123 -91 -115 0
-120 -148 -124 -92 0
-120 -148 -124 -116 0
-120 -148 -92 -116 0
-120 -124 -92 -116 0
-301 -302 0
-303 -304 0
-121 301 0
-121 303 0
-122 301 0
-122 304 0
-123 302 0
-123 303 0
-124 302 0
-124 304 0
-121 149 125 93 0
-121 149 125 117 0
-121 149 93 117 0
-121 125 93 117 0
-122 150 126 94 0
-122 150 126 118 0
-122 150 94 118 0
-122 126 94 118 0
-123 151 127 95 0
-123 151 127 119 0
-123 151 95 119 0
-123 127 95 119 0
-124 152 128 96 0
-124 152 128 120 0
-124 152 96 120 0
-124 128 96 120 0
-121 -149 -125 -93 0
-121 -149 -125 -117 0
-121 -149 -93 -117 0
-121 -125 -93 -117 0
-122 -150 -126 -94 0
-122 -150 -126 -118 0
-122 -150 -94 -118 0
-122 -126 -94 -118 0
-123 -151 -127 -95 0
-123 -151 -127 -119 0
-123 -151 -95 -119 0
-123 -127 -95 -119 0
-124 -152 -128 -96 0
-124 -152 -128 -120 0
-124 -152 -96 -120 0
-124 -128 -96 -120 0
-305 -306 0
-307 -308 0
-125 305 0
-125 307 0
-126 305 0
-126 308 0
-127 306 0
-127 307 0
-128 306 0
-128 308 0
-125 153 129 97 0
-125 153 129 121 0
-125 153 97 121 0
-125 129 97 121 0
-126 154 130 98 0
-126 154 130 122 0
-126 154 98 122 0
-126 130 98 122 0
-127 155 131 99 0
-127 155 131 123 0
-127 155 99 123 0
-127 131 99 123 0
-128 156 132 100 0
-128 156 132 124 0
-128 156 100 124 0
-128 132 100 124 0
-125 -153 -129 -97 0
-125 -153 -129 -121 0
-125 -153 -97 -121 0
-125 -129 -97 -121 0
-126 -154 -130 -98 0
-126 -154 -130 -122 0
-126 -154 -98 -122 0
-126 -130 -98 -122 0
-127 -155 -131 -99 0
-127 -155 -131 -123 0
-127 -155 -99 -123 0
-127 -131 -99 -123 0
-128 -156 -132 -100 0
-128 -156 -132 -124 0
-128 -156 -100 -124 0
-128 -132 -100 -124 0
-309 -310 0
-311 -312 0
-129 309 0
-129 311 0
-130 309 0
-130 312 0
-131 310 0
-131 311 0
-132 310 0
-132 312 0
-129 157 133 101 0
-129 157 133 125 0
-129 157 101 125 0
-129 133 101 125 0
-130 158 134 102 0
-130 158 134 126 0
-130 158 102 126 0
-130 134 102 126 0
-131 159 135 103 0
-131 159 135 127 0
-131 159 103 127 0
-131 135 103 127 0
-132 160 136 104 0
-132 160 136 128 0
-132 160 104 128 0
-132 136 104 128 0
-129 -157 -133 -101 0
-129 -157 -133 -125 0
-129 -157 -101 -125 0
-129 -133 -101 -125 0
-130 -158 -134 -102 0
-130 -158 -134 -126 0
-130 -158 -102 -126 0
-130 -134 -102 -126 0
-131 -159 -135 -103 0
-131 -159 -135 -127 0
-131 -159 -103 -127 0
-131 -135 -103 -127 0
-132 -160 -136 -104 0
-132 -160 -136 -128 0
-132 -160 -104 -128 0
-132 -136 -104 -128 0
-313 -314 0
-315 -316 0
-133 313 0
-133 315 0
-134 313 0
-134 316 0
-135 314 0
-135 315 0
-136 314 0
-136 316 0
-133 161 137 105 0
-133 161 137 129 0
-133 161 105 129 0
-133 137 105 129 0
-134 162 138 106 0
-134 162 138 130 0
-134 162 106 130 0
-134 138 106 130 0
-135 163 139 107 0
-135 163 139 131 0
-135 163 107 131 0
-135 139 107 131 0
-136 164 140 108 0
-136 164 140 132 0
-136 164 108 132 0
-136 140 108 132 0
-133 -161 -137 -105 0
-133 -161 -137 -129 0
-133 -161 -105 -129 0
-133 -137 -105 -129 0
-134 -162 -138 -106 0
-134 -162 -138 -130 0
-134 -162 -106 -130 0
-134 -138 -106 -130 0
-135 -163 -139 -107 0
-135 -163 -139 -131 0
-135 -163 -107 -131 0
-135 -139 -107 -131 0
-136 -164 -140 -108 0
-136 -164 -140 -132 0
-136 -164 -108 -132 0
-136 -140 -108 -132 0
-317 -318 0
-319 -320 0
-137 317 0
-137 319 0
-138 317 0
-138 320 0
-139 318 0
-139 319 0
-140 318 0
-140 320 0
-137 165 133 0
-137 165 109 0
-137 133 109 0
-138 166 134 0
-138 166 110 0
-138 134 110 0
-139 167 135 0
-139 167 111 0
-139 135 111 0
-140 168 136 0
-140 168 112 0
-140 136 112 0
-137 -165 -133 -109 0
-138 -166 -134 -110 0
-139 -167 -135 -111 0
-140 -168 -136 -112 0
142 0
-141 0
-143 0
-144 0
170 146 114 0
-170 -146 0
-170 -114 0
-146 -114 0
-321 -322 0
-323 -324 0
-145 321 0
-145 323 0
-146 321 0
-146 324 0
-147 322 0
-147 323 0
-148 322 0
-148 324 0
-145 173 149 117 0
-145 173 149 141 0
-145 173 117 141 0
-145 149 117 141 0
-146 174 150 118 0
-146 174 150 142 0
-146 174 118 142 0
-146 150 118 142 0
-147 175 151 119 0
-147 175 151 143 0
-147 175 119 143 0
-147 151 119 143 0
-148 176 152 120 0
-148 176 152 144 0
-148 176 120 144 0
-148 152 120 144 0
-145 -173 -149 -117 0
-145 -173 -149 -141 0
-145 -173 -117 -141 0
-145 -149 -117 -141 0
-146 -174 -150 -118 0
-146 -174 -150 -142 0
-146 -174 -118 -142 0
-146 -150 -118 -142 0
-147 -175 -151 -119 0
-147 -175 -151 -143 0
-147 -175 -119 -143 0
-147 -151 -119 -143 0
-148 -176 -152 -120 0
-148 -176 -152 -144 0
-148 -176 -120 -144 0
-148 -152 -120 -144 0
-325 -326 0
-327 -328 0
-149 325 0
-149 327 0
-150 325 0
-150 328 0
-151 326 0
-151 327 0
-152 326 0
-152 328 0
-149 177 153 121 0
-149 177 153 145 0
-149 177 121 145 0
-149 153 121 145 0
-150 178 154 122 0
-150 178 154 146 0
-150 178 122 146 0
-150 154 122 146 0
-151 179 155 123 0
-151 179 155 147 0
-151 179 123 147 0
-151 155 123 147 0
-152 180 156 124 0
-152 180 156 148 0
-152 180 124 148 0
-152 156 124 148 0
-149 -177 -153 -121 0
-149 -177 -153 -145 0
-149 -177 -121 -145 0
-149 -153 -121 -145 0
-150 -178 -154 -122 0
-150 -178 -154 -146 0
-150 -178 -122 -146 0
-150 -154 -122 -146 0
-151 -179 -155 -123 0
-151 -179 -155 -147 0
-151 -179 -123 -147 0
-151 -155 -123 -147 0
-152 -180 -156 -124 0
-152 -180 -156 -148 0
-152 -180 -124 -148 0
-152 -156 -124 -148 0
156 0
-153 0
-154 0
-155 0
184 160 128 152 0
-184 -160 0
-184 -128 0
-184 -152 0
-160 -128 0
-160 -152 0
-128 -152 0
-329 -330 0
-331 -332 0
-157 329 0
-157 331 0
-158 329 0
-158 332 0
-159 330 0
-159 331 0
-160 330 0
-160 332 0
-157 185 161 129 0
-157 185 161 153 0
-157 185 129 153 0
-157 161 129 153 0
-158 186 162 130 0
-158 186 162 154 0
-158 186 130 154 0
-158 162 130 154 0
-159 187 163 131 0
-159 187 163 155 0
-159 187 131 155 0
-159 163 131 155 0
-160 188 164 132 0
-160 188 164 156 0
-160 188 132 156 0
-160 164 132 156 0
-157 -185 -161 -129 0
-157 -185 -161 -153 0
-157 -185 -129 -153 0
-157 -161 -129 -153 0
-158 -186 -162 -130 0
-158 -186 -162 -154 0
-158 -186 -130 -154 0
-158 -162 -130 -154 0
-159 -187 -163 -131 0
-159 -187 -163 -155 0
-159 -187 -131 -155 0
-159 -163 -131 -155 0
-160 -188 -164 -132 0
-160 -188 -164 -156 0
-160 -188 -132 -156 0
-160 -164 -132 -156 0
-333 -334 0
-335 -336 0
-161 333 0
-161 335 0
-162 333 0
-162 336 0
-163 334 0
-163 335 0
-164 334 0
-164 336 0
-161 189 165 133 0
-161 189 165 157 0
-161 189 133 157 0
-161 165 133 157 0
-162 190 166 134 0
-162 190 166 158 0
-162 190 134 158 0
-162 166 134 158 0
-163 191 167 135 0
-163 191 167 159 0
-163 191 135 159 0
-163 167 135 159 0
-164 192 168 136 0
-164 192 168 160 0
-164 192 136 160 0
-164 168 136 160 0
-161 -189 -165 -133 0
-161 -189 -165 -157 0
-161 -189 -133 -157 0
-161 -165 -133 -157 0
-162 -190 -166 -134 0
-162 -190 -166 -158 0
-162 -190 -134 -158 0
-162 -166 -134 -158 0
-163 -191 -167 -135 0
-163 -191 -167 -159 0
-163 -191 -135 -159 0
-163 -167 -135 -159 0
-164 -192 -168 -136 0
-164 -192 -168 -160 0
-164 -192 -136 -160 0
-164 -168 -136 -160 0
-337 -338 0
-339 -340 0
-165 337 0
-165 339 0
-166 337 0
-166 340 0
-167 338 0
-167 339 0
-168 338 0
-168 340 0
-165 193 161 0
-165 193 137 0
-165 161 137 0
-166 194 162 0
-166 194 138 0
-166 162 138 0
-167 195 163 0
-167 195 139 0
-167 163 139 0
-168 196 164 0
-168 196 140 0
-168 164 140 0
-165 -193 -161 -137 0
-166 -194 -162 -138 0
-167 -195 -163 -139 0
-168 -196 -164 -140 0
169 0
-170 0
-171 0
-172 0
141 173 0
-141 -173 0
-341 -342 0
-343 -344 0
-173 341 0
-173 343 0
-174 341 0
-174 344 0
-175 342 0
-175 343 0
-176 342 0
-176 344 0
-173 145 177 0
-173 145 169 0
-173 177 169 0
-174 146 178 0
-174 146 170 0
-174 178 170 0
-175 147 179 0
-175 147 171 0
-175 179 171 0
-176 148 180 0
-176 148 172 0
-176 180 172 0
-173 -145 -177 -169 0
-174 -146 -178 -170 0
-175 -147 -179 -171 0
-176 -148 -180 -172 0
-345 -346 0
-347 -348 0
-177 345 0
-177 347 0
-178 345 0
-178 348 0
-179 346 0
-179 347 0
-180 346 0
-180 348 0
-177 149 181 0
-177 149 173 0
-177 181 173 0
-178 150 182 0
-178 150 174 0
-178 182 174 0
-179 151 183 0
-179 151 175 0
-179 183 175 0
-180 152 184 0
-180 152 176 0
-180 184 176 0
-177 -149 -181 -173 0
-178 -150 -182 -174 0
-179 -151 -183 -175 0
-180 -152 -184 -176 0
-349 -350 0
-351 -352 0
-181 349 0
-181 351 0
-182 349 0
-182 352 0
-183 350 0
-183 351 0
-184 350 0
-184 352 0
-181 153 185 0
-181 153 177 0
-181 185 177 0
-182 154 186 0
-182 154 178 0
-182 186 178 0
-183 155 187 0
-183 155 179 0
-183 187 179 0
-184 156 188 0
-184 156 180 0
-184 188 180 0
-181 -153 -185 -177 0
-182 -154 -186 -178 0
-183 -155 -187 -179 0
-184 -156 -188 -180 0
-353 -354 0
-355 -356 0
-185 353 0
-185 355 0
-186 353 0
-186 356 0
-187 354 0
-187 355 0
-188 354 0
-188 356 0
-185 157 189 0
-185 157 181 0
-185 189 181 0
-186 158 190 0
-186 158 182 0
-186 190 182 0
-187 159 191 0
-187 159 183 0
-187 191 183 0
-188 160 192 0
-188 160 184 0
-188 192 184 0
-185 -157 -189 -181 0
-186 -158 -190 -182 0
-187 -159 -191 -183 0
-188 -160 -192 -184 0
-357 -358 0
-359 -360 0
-189 357 0
-189 359 0
-190 357 0
-190 360 0
-191 358 0
-191 359 0
-192 358 0
-192 360 0
-189 161 193 0
-189 161 185 0
-189 193 185 0
-190 162 194 0
-190 162 186 0
-190 194 186 0
-191 163 195 0
-191 163 187 0
-191 195 187 0
-192 164 196 0
-192 164 188 0
-192 196 188 0
-189 -161 -193 -185 0
-190 -162 -194 -186 0
-191 -163 -195 -187 0
-192 -164 -196 -188 0
195 0
-193 0
-194 0
-196 0
167 191 0
-167 -191 0